/* Objective function */
min: 3.00 x1_2 + 6.08 x1_3 + 8.06 x1_4 + 3.00 x1_6 + 8.54 x1_7 + 7.00 x1_9 +
     7.28 x1_10 + 8.60 x1_11 + 10.63 x1_12 + 3.16 x2_3 + 5.10 x2_4 + 4.24 x2_6 +
     5.83 x2_7 + 7.62 x2_9 + 7.07 x2_10 + 7.28 x2_11 + 8.60 x2_12 + 2.00 x3_4 +
     7.21 x3_6 + 4.47 x3_7 + 10.00 x3_9 + 8.94 x3_10 + 8.06 x3_11 + 8.25 x3_12 +
     8.94 x4_6 + 4.00 x4_7 + 11.31 x4_9 + 10.00 x4_10 + 8.54 x4_11 + 8.00 x4_12 +
     8.00 x6_7 + 4.00 x6_9 + 4.47 x6_10 + 6.40 x6_11 + 8.94 x6_12 + 8.94 x7_9 +
     7.21 x7_10 + 5.00 x7_11 + 4.00 x7_12 + 2.00 x9_10 + 5.00 x9_11 + 8.00 x9_12 +
     3.00 x10_11 + 6.00 x10_12 + 3.00 x11_12;

/* Variable bounds */
vertice1:   x1_2 + x1_3 + x1_4 + x1_6 + x1_7 + x1_9 + x1_10 + x1_11 + x1_12 = 1 ;
vertice2:   x1_2 + x2_3 + x2_4 + x2_6 + x2_7 + x2_9 + x2_10 + x2_11 + x2_12 = 1 ;
vertice3:   x1_3 + x2_3 + x3_4 + x3_6 + x3_7 + x3_9 + x3_10 + x3_11 + x3_12 = 1 ;
vertice4:   x1_4 + x2_4 + x3_4 + x4_6 + x4_7 + x4_9 + x4_10 + x4_11 + x4_12 = 1 ;
/* Vertice 5 tem grau par */
vertice6:   x1_6 + x2_6 + x3_6 + x4_6 + x6_7 + x6_9 + x6_10 + x6_11 + x6_12 = 1 ;
vertice7:   x1_7 + x2_7 + x3_7 + x4_7 + x6_7 + x7_9 + x7_10 + x7_11 + x7_12 = 1 ;
/* Vertice 8 tem grau par */
vertice9:   x1_9 + x2_9 + x3_9 + x4_9 + x6_9 + x7_9 + x9_10 + x9_11 + x9_12 = 1 ;
vertice10:  x1_10 + x2_10 + x3_10 + x4_10 + x6_10 + x7_10 + x9_10 + x10_11 + x10_12 = 1 ;
vertice11:  x1_11 + x2_11 + x3_11 + x4_11 + x6_11 + x7_11 + x9_11 + x10_11 + x11_12 = 1 ;
vertice12:  x1_12 + x2_12 + x3_12 + x4_12 + x6_12 + x7_12 + x9_12 + x10_12 + x11_12 = 1 ;
/* Vertice 13 tem grau par */

bin x1_2, x1_3, x1_4, x1_6, x1_7, x1_9, x1_10, x1_11, x1_12, x2_3, x2_4, x2_6, x2_7,
    x2_9, x2_10, x2_11, x2_12, x3_4, x3_6, x3_7, x3_9, x3_10, x3_11, x3_12, x4_6, x4_7,
    x4_9, x4_10, x4_11, x4_12, x6_7, x6_9, x6_10, x6_11, x6_12, x7_9, x7_10, x7_11,
    x7_12, x9_10, x9_11, x9_12, x10_11, x10_12, x11_12;


